c "214176.clq"
p edge 100 1344
e 1 17
e 1 23
e 1 24
e 1 27
e 1 28
e 1 40
e 1 73
e 1 83
e 2 17
e 2 18
e 2 19
e 2 20
e 2 21
e 2 22
e 2 25
e 2 26
e 2 28
e 2 29
e 2 31
e 2 34
e 2 37
e 2 38
e 2 39
e 2 44
e 2 58
e 2 59
e 2 62
e 2 66
e 2 78
e 2 82
e 2 83
e 2 87
e 2 95
e 2 100
e 3 17
e 3 18
e 3 19
e 3 20
e 3 21
e 3 24
e 3 26
e 3 28
e 3 30
e 3 37
e 3 38
e 3 45
e 3 52
e 3 61
e 3 81
e 3 83
e 3 96
e 4 17
e 4 18
e 4 19
e 4 20
e 4 21
e 4 22
e 4 23
e 4 24
e 4 26
e 4 28
e 4 34
e 4 40
e 4 41
e 4 44
e 4 45
e 4 48
e 4 49
e 4 55
e 4 62
e 4 70
e 4 81
e 4 85
e 4 86
e 4 91
e 4 94
e 4 99
e 5 17
e 5 18
e 5 19
e 5 20
e 5 21
e 5 22
e 5 24
e 5 25
e 5 26
e 5 27
e 5 28
e 5 29
e 5 30
e 5 31
e 5 33
e 5 35
e 5 36
e 5 37
e 5 39
e 5 40
e 5 41
e 5 43
e 5 46
e 5 47
e 5 48
e 5 49
e 5 50
e 5 54
e 5 55
e 5 56
e 5 57
e 5 64
e 5 67
e 5 72
e 5 76
e 5 77
e 5 80
e 5 95
e 5 96
e 6 17
e 6 18
e 6 19
e 6 20
e 6 23
e 6 24
e 6 25
e 6 27
e 6 28
e 6 31
e 6 34
e 6 38
e 6 41
e 6 43
e 6 49
e 6 55
e 6 58
e 6 67
e 6 76
e 6 77
e 6 79
e 6 82
e 6 90
e 6 91
e 6 99
e 7 17
e 7 18
e 7 19
e 7 20
e 7 21
e 7 23
e 7 24
e 7 25
e 7 26
e 7 27
e 7 28
e 7 30
e 7 31
e 7 32
e 7 37
e 7 38
e 7 42
e 7 44
e 7 46
e 7 47
e 7 48
e 7 57
e 7 61
e 7 62
e 7 65
e 7 66
e 7 68
e 7 69
e 7 70
e 7 75
e 7 76
e 7 78
e 7 85
e 8 17
e 8 18
e 8 20
e 8 21
e 8 22
e 8 25
e 8 26
e 8 29
e 8 30
e 8 33
e 8 34
e 8 36
e 8 37
e 8 38
e 8 39
e 8 45
e 8 58
e 8 59
e 8 60
e 8 62
e 8 66
e 8 71
e 8 73
e 8 75
e 8 77
e 8 78
e 8 86
e 8 91
e 8 92
e 9 17
e 9 18
e 9 19
e 9 20
e 9 25
e 9 31
e 9 36
e 9 38
e 9 63
e 9 78
e 9 86
e 9 98
e 10 17
e 10 18
e 10 19
e 10 20
e 10 21
e 10 22
e 10 23
e 10 24
e 10 26
e 10 34
e 10 36
e 10 44
e 10 45
e 10 49
e 10 58
e 10 64
e 10 68
e 10 73
e 10 75
e 10 77
e 10 94
e 11 17
e 11 18
e 11 19
e 11 20
e 11 21
e 11 22
e 11 23
e 11 24
e 11 25
e 11 27
e 11 29
e 11 32
e 11 34
e 11 35
e 11 36
e 11 40
e 11 43
e 11 47
e 11 50
e 11 57
e 11 61
e 11 63
e 11 68
e 11 69
e 11 73
e 11 75
e 11 76
e 11 81
e 11 82
e 11 89
e 11 91
e 11 95
e 11 96
e 12 17
e 12 18
e 12 19
e 12 20
e 12 21
e 12 22
e 12 23
e 12 24
e 12 25
e 12 27
e 12 28
e 12 29
e 12 30
e 12 32
e 12 36
e 12 37
e 12 40
e 12 42
e 12 43
e 12 44
e 12 45
e 12 46
e 12 48
e 12 52
e 12 57
e 12 60
e 12 63
e 12 70
e 12 77
e 12 80
e 12 81
e 12 88
e 12 91
e 12 92
e 12 95
e 13 17
e 13 18
e 13 19
e 13 21
e 13 22
e 13 26
e 13 28
e 13 29
e 13 33
e 13 43
e 13 59
e 13 64
e 13 74
e 14 17
e 14 18
e 14 19
e 14 22
e 14 23
e 14 24
e 14 34
e 14 73
e 14 86
e 15 17
e 15 18
e 15 19
e 15 20
e 15 21
e 15 22
e 15 23
e 15 31
e 15 35
e 15 38
e 15 41
e 15 48
e 15 49
e 15 55
e 15 65
e 15 75
e 15 76
e 15 77
e 15 80
e 15 83
e 15 89
e 15 93
e 15 98
e 15 99
e 16 17
e 16 18
e 16 19
e 16 20
e 16 21
e 16 22
e 16 23
e 16 26
e 16 27
e 16 29
e 16 33
e 16 36
e 16 37
e 16 42
e 16 45
e 16 56
e 16 61
e 16 66
e 16 71
e 16 72
e 16 97
e 17 18
e 17 19
e 17 20
e 17 21
e 17 22
e 17 23
e 17 25
e 17 26
e 17 27
e 17 29
e 17 30
e 17 32
e 17 34
e 17 35
e 17 36
e 17 37
e 17 38
e 17 39
e 17 40
e 17 42
e 17 45
e 17 46
e 17 47
e 17 51
e 17 52
e 17 55
e 17 56
e 17 60
e 17 61
e 17 62
e 17 63
e 17 64
e 17 67
e 17 75
e 17 79
e 17 83
e 17 85
e 17 89
e 17 92
e 17 95
e 17 97
e 18 19
e 18 20
e 18 21
e 18 22
e 18 23
e 18 24
e 18 25
e 18 26
e 18 27
e 18 28
e 18 29
e 18 30
e 18 31
e 18 32
e 18 33
e 18 34
e 18 35
e 18 37
e 18 39
e 18 40
e 18 41
e 18 42
e 18 43
e 18 46
e 18 49
e 18 50
e 18 53
e 18 54
e 18 56
e 18 58
e 18 60
e 18 63
e 18 65
e 18 67
e 18 68
e 18 69
e 18 70
e 18 75
e 18 76
e 18 77
e 18 78
e 18 82
e 18 83
e 18 84
e 18 85
e 18 86
e 18 88
e 18 93
e 18 96
e 18 97
e 18 100
e 19 20
e 19 21
e 19 22
e 19 23
e 19 24
e 19 25
e 19 26
e 19 27
e 19 28
e 19 29
e 19 30
e 19 31
e 19 32
e 19 34
e 19 35
e 19 36
e 19 37
e 19 38
e 19 39
e 19 43
e 19 46
e 19 47
e 19 49
e 19 50
e 19 51
e 19 53
e 19 58
e 19 61
e 19 62
e 19 63
e 19 64
e 19 67
e 19 69
e 19 71
e 19 79
e 19 81
e 19 82
e 19 83
e 19 85
e 19 86
e 19 88
e 19 89
e 19 90
e 19 91
e 19 92
e 19 95
e 19 97
e 19 98
e 20 21
e 20 22
e 20 23
e 20 24
e 20 25
e 20 28
e 20 30
e 20 31
e 20 32
e 20 33
e 20 35
e 20 36
e 20 37
e 20 38
e 20 41
e 20 43
e 20 44
e 20 45
e 20 46
e 20 47
e 20 51
e 20 52
e 20 53
e 20 57
e 20 60
e 20 61
e 20 63
e 20 66
e 20 70
e 20 73
e 20 75
e 20 76
e 20 78
e 20 87
e 20 88
e 20 93
e 20 98
e 20 99
e 21 22
e 21 23
e 21 24
e 21 25
e 21 26
e 21 27
e 21 29
e 21 30
e 21 32
e 21 33
e 21 34
e 21 35
e 21 36
e 21 42
e 21 44
e 21 47
e 21 49
e 21 52
e 21 54
e 21 56
e 21 57
e 21 58
e 21 59
e 21 64
e 21 69
e 21 74
e 21 80
e 21 81
e 21 86
e 21 89
e 21 91
e 21 96
e 21 99
e 22 23
e 22 24
e 22 25
e 22 26
e 22 27
e 22 28
e 22 30
e 22 31
e 22 32
e 22 35
e 22 36
e 22 37
e 22 39
e 22 40
e 22 41
e 22 42
e 22 44
e 22 46
e 22 47
e 22 48
e 22 51
e 22 53
e 22 55
e 22 56
e 22 60
e 22 63
e 22 66
e 22 67
e 22 70
e 22 71
e 22 75
e 22 76
e 22 77
e 22 89
e 22 92
e 22 93
e 22 95
e 23 24
e 23 25
e 23 26
e 23 27
e 23 28
e 23 31
e 23 32
e 23 33
e 23 39
e 23 41
e 23 43
e 23 44
e 23 47
e 23 50
e 23 53
e 23 54
e 23 55
e 23 65
e 23 66
e 23 68
e 23 73
e 23 74
e 23 78
e 23 82
e 23 84
e 23 86
e 23 90
e 23 93
e 23 94
e 24 25
e 24 26
e 24 27
e 24 29
e 24 31
e 24 32
e 24 33
e 24 34
e 24 37
e 24 38
e 24 41
e 24 42
e 24 45
e 24 46
e 24 48
e 24 51
e 24 52
e 24 54
e 24 56
e 24 59
e 24 60
e 24 62
e 24 63
e 24 64
e 24 66
e 24 68
e 24 70
e 24 71
e 24 76
e 24 77
e 24 84
e 24 87
e 24 88
e 24 89
e 24 94
e 24 100
e 25 27
e 25 29
e 25 30
e 25 31
e 25 32
e 25 34
e 25 35
e 25 40
e 25 41
e 25 42
e 25 43
e 25 46
e 25 49
e 25 53
e 25 57
e 25 59
e 25 62
e 25 63
e 25 65
e 25 66
e 25 67
e 25 68
e 25 69
e 25 71
e 25 72
e 25 74
e 25 81
e 25 82
e 25 83
e 25 89
e 25 91
e 25 98
e 25 99
e 25 100
e 26 27
e 26 28
e 26 29
e 26 30
e 26 31
e 26 32
e 26 33
e 26 34
e 26 36
e 26 38
e 26 43
e 26 45
e 26 48
e 26 50
e 26 51
e 26 53
e 26 54
e 26 55
e 26 57
e 26 58
e 26 59
e 26 62
e 26 66
e 26 67
e 26 68
e 26 69
e 26 71
e 26 74
e 26 78
e 26 88
e 26 91
e 26 95
e 26 98
e 26 100
e 27 28
e 27 29
e 27 30
e 27 32
e 27 33
e 27 35
e 27 36
e 27 37
e 27 38
e 27 39
e 27 43
e 27 44
e 27 49
e 27 50
e 27 52
e 27 54
e 27 57
e 27 58
e 27 59
e 27 60
e 27 62
e 27 65
e 27 70
e 27 72
e 27 77
e 27 78
e 27 79
e 27 80
e 27 81
e 27 82
e 27 83
e 27 84
e 27 90
e 27 92
e 27 95
e 27 98
e 27 99
e 28 29
e 28 30
e 28 31
e 28 32
e 28 33
e 28 35
e 28 38
e 28 39
e 28 40
e 28 41
e 28 42
e 28 47
e 28 48
e 28 51
e 28 52
e 28 55
e 28 56
e 28 57
e 28 63
e 28 67
e 28 71
e 28 73
e 28 74
e 28 80
e 28 85
e 28 93
e 28 99
e 28 100
e 29 30
e 29 32
e 29 33
e 29 39
e 29 40
e 29 41
e 29 44
e 29 45
e 29 46
e 29 47
e 29 48
e 29 49
e 29 50
e 29 52
e 29 53
e 29 54
e 29 55
e 29 57
e 29 59
e 29 60
e 29 64
e 29 65
e 29 67
e 29 69
e 29 70
e 29 76
e 29 78
e 29 80
e 29 83
e 29 84
e 29 88
e 29 90
e 29 97
e 29 99
e 30 31
e 30 33
e 30 34
e 30 35
e 30 36
e 30 37
e 30 38
e 30 39
e 30 40
e 30 42
e 30 44
e 30 47
e 30 48
e 30 49
e 30 50
e 30 51
e 30 53
e 30 54
e 30 58
e 30 60
e 30 63
e 30 64
e 30 74
e 30 78
e 30 80
e 30 84
e 30 87
e 30 89
e 30 91
e 30 98
e 31 33
e 31 35
e 31 37
e 31 39
e 31 40
e 31 43
e 31 47
e 31 48
e 31 49
e 31 51
e 31 52
e 31 54
e 31 56
e 31 59
e 31 63
e 31 73
e 31 75
e 31 79
e 31 85
e 31 88
e 31 91
e 31 92
e 31 95
e 31 96
e 31 97
e 32 33
e 32 34
e 32 38
e 32 41
e 32 48
e 32 50
e 32 54
e 32 56
e 32 60
e 32 61
e 32 64
e 32 65
e 32 66
e 32 69
e 32 72
e 32 73
e 32 74
e 32 83
e 32 85
e 32 89
e 32 92
e 32 98
e 33 35
e 33 36
e 33 40
e 33 41
e 33 42
e 33 51
e 33 53
e 33 54
e 33 55
e 33 56
e 33 57
e 33 58
e 33 59
e 33 60
e 33 61
e 33 64
e 33 69
e 33 71
e 33 73
e 33 76
e 33 83
e 33 85
e 33 96
e 33 100
e 34 35
e 34 39
e 34 41
e 34 42
e 34 43
e 34 44
e 34 46
e 34 50
e 34 51
e 34 52
e 34 62
e 34 66
e 34 69
e 34 75
e 34 80
e 34 88
e 34 92
e 34 93
e 34 94
e 34 96
e 35 39
e 35 43
e 35 45
e 35 50
e 35 53
e 35 56
e 35 74
e 35 80
e 35 90
e 35 93
e 35 99
e 36 45
e 36 46
e 36 50
e 36 53
e 36 55
e 36 57
e 36 58
e 36 61
e 36 67
e 36 69
e 36 73
e 36 79
e 36 85
e 36 92
e 36 93
e 37 40
e 37 45
e 37 48
e 37 49
e 37 58
e 37 60
e 37 61
e 37 63
e 37 74
e 37 81
e 37 89
e 37 92
e 37 93
e 37 98
e 38 39
e 38 40
e 38 42
e 38 47
e 38 51
e 38 53
e 38 55
e 38 58
e 38 64
e 38 72
e 38 80
e 38 95
e 39 41
e 39 42
e 39 44
e 39 48
e 39 49
e 39 55
e 39 56
e 39 61
e 39 64
e 39 65
e 39 68
e 39 69
e 39 71
e 39 77
e 39 81
e 39 88
e 39 93
e 39 99
e 40 44
e 40 45
e 40 46
e 40 53
e 40 57
e 40 63
e 40 67
e 40 69
e 40 79
e 40 88
e 41 42
e 41 46
e 41 47
e 41 50
e 41 52
e 41 53
e 41 55
e 41 62
e 41 65
e 41 68
e 41 70
e 41 71
e 41 72
e 41 81
e 41 87
e 41 94
e 41 95
e 42 43
e 42 44
e 42 45
e 42 51
e 42 54
e 42 55
e 42 58
e 42 70
e 42 72
e 42 77
e 42 82
e 42 93
e 42 96
e 43 52
e 43 56
e 43 66
e 43 67
e 43 84
e 43 85
e 44 46
e 44 49
e 44 52
e 44 59
e 44 60
e 44 76
e 44 79
e 44 87
e 44 92
e 44 94
e 44 100
e 45 48
e 45 50
e 45 51
e 45 56
e 45 62
e 45 72
e 45 82
e 45 83
e 45 84
e 45 88
e 45 95
e 45 97
e 45 100
e 46 47
e 46 52
e 46 54
e 46 57
e 46 59
e 46 65
e 46 71
e 46 73
e 46 84
e 46 91
e 47 50
e 47 51
e 47 53
e 47 54
e 47 64
e 47 67
e 47 70
e 47 75
e 47 79
e 47 88
e 47 98
e 48 51
e 48 59
e 48 62
e 48 64
e 48 65
e 48 68
e 48 70
e 48 71
e 48 72
e 48 80
e 48 82
e 48 87
e 48 89
e 48 90
e 48 91
e 48 97
e 49 54
e 49 84
e 49 85
e 49 94
e 49 100
e 50 57
e 50 67
e 50 69
e 50 71
e 50 75
e 50 78
e 50 82
e 50 85
e 50 87
e 50 91
e 50 96
e 51 52
e 51 61
e 51 69
e 51 76
e 51 79
e 51 92
e 51 99
e 52 56
e 52 59
e 52 60
e 52 61
e 52 68
e 52 71
e 52 75
e 52 77
e 52 83
e 52 84
e 52 87
e 52 88
e 52 90
e 52 93
e 52 94
e 52 98
e 53 59
e 53 60
e 53 79
e 53 81
e 53 84
e 53 90
e 53 94
e 54 58
e 54 61
e 54 66
e 54 84
e 54 87
e 55 70
e 55 71
e 55 76
e 55 81
e 55 82
e 55 84
e 55 87
e 55 92
e 55 96
e 56 79
e 56 86
e 57 65
e 57 86
e 57 87
e 57 97
e 58 62
e 58 68
e 58 70
e 58 73
e 58 74
e 58 76
e 58 78
e 58 79
e 58 96
e 58 98
e 59 63
e 59 64
e 59 65
e 59 66
e 59 68
e 59 72
e 59 74
e 59 75
e 59 77
e 59 78
e 59 83
e 59 84
e 59 89
e 59 96
e 60 61
e 60 62
e 60 66
e 60 68
e 60 72
e 60 76
e 60 82
e 60 87
e 60 88
e 61 67
e 61 70
e 61 74
e 61 85
e 61 86
e 61 89
e 61 98
e 62 75
e 62 79
e 62 90
e 62 94
e 63 65
e 63 72
e 63 94
e 63 95
e 63 97
e 63 99
e 63 100
e 64 65
e 64 78
e 64 80
e 64 81
e 64 90
e 64 94
e 65 72
e 65 73
e 65 85
e 65 86
e 65 100
e 66 68
e 66 74
e 66 77
e 66 78
e 66 97
e 66 99
e 67 72
e 67 79
e 67 85
e 67 92
e 67 97
e 68 80
e 69 73
e 69 74
e 69 81
e 69 87
e 69 89
e 69 97
e 70 72
e 70 80
e 70 83
e 70 90
e 70 91
e 70 100
e 71 82
e 71 88
e 71 89
e 71 90
e 71 97
e 72 74
e 72 95
e 74 96
e 74 98
e 75 77
e 75 80
e 76 84
e 76 87
e 77 79
e 77 81
e 77 86
e 77 90
e 78 97
e 79 86
e 79 93
e 80 82
e 80 93
e 80 95
e 81 93
e 82 87
e 82 91
e 83 86
e 84 90
e 84 92
e 84 94
e 85 86
e 85 90
e 85 99
e 85 100
e 87 98
e 88 99
e 91 96
e 92 94
e 92 96
e 93 94
e 95 100
e 96 97
e 97 100
